rc2_10_6

VEHICLE
NUMBER   CAPACITY
250     1000

CUSTOMER
CUST NO. XCOORD.  YCOORD.  DEMAND  READY TIME DUE DATE  SERVICE TIME

0   250    250     0     0    7284     0
130 44 344 12 4258 4498 10
770 84 377 10 3645 3885 10
634 11 403 18 1312 1552 10
111 0 422 8 3224 3464 10
880 13 394 15 1430 1670 10
340 58 391 16 3469 3709 10
359 59 388 20 2591 2831 10
46 69 414 6 4993 5233 10
120 7 382 27 3022 3262 10
295 0 356 13 4285 4525 10
642 95 382 19 865 1105 10
766 12 358 7 4837 5077 10
